minizinc/sudoku_problems2/sudoku_p15.dzn
%
% sudoku_p15.dzn
% See http://www.hakank.org/minizinc/sudoku_gcc.mzn
% 
% This problem is problem 15 from
% Gecode's sudoku.cpp
% http://www.gecode.org/gecode-doc-latest/sudoku_8cpp-source.html
% 
x = array2d(1..n, 1..n, [   
% Puzzle 10 from http://www.sudoku.org.uk/bifurcation.htm
% 15
  _,  _,  4,  _,  5,  _,  9,  _,  _,
  _,  _,  _,  _,  7,  _,  _,  _,  6,
  3,  7,  _,  _,  _,  _,  _,  _,  2,
  _,  _,  9,  5,  _,  _,  _,  8,  _,
  _,  _,  1,  2,  _,  4,  3,  _,  _,
  _,  6,  _,  _,  _,  9,  2,  _,  _,
  2,  _,  _,  _,  _,  _,  _,  9,  3,
  1,  _,  _,  _,  4,  _,  _,  _,  _,
  _,  _,  6,  _,  2,  _,  7,  _,  _
]);

n = 9;


